p cnf 999
723 0
731 0
764 0
848 0
871 0
886 0
897 0
928 0
937 0

p cnf 999
689 0
728 0
784 0
854 0
863 0
895 0
914 0
932 0
978 0

p cnf 999
668 0
685 0
712 0
769 0
797 0
811 0
827 0
946 0
983 0

p cnf 999
641 0
696 0
755 0
788 0
799 0
814 0
875 0
938 0
967 0

p cnf 999
724 0
789 0
813 0
837 0
854 0
892 0
915 0
949 0
977 0

p cnf 999
694 0
737 0
768 0
812 0
891 0
931 0
949 0
985 0
996 0

p cnf 999
717 0
746 0
755 0
784 0
828 0
834 0
879 0
933 0
942 0

p cnf 999
694 0
724 0
757 0
841 0
887 0
898 0
921 0
955 0
993 0

p cnf 999
696 0
726 0
821 0
835 0
842 0
878 0
914 0
922 0
949 0

p cnf 999
685 0
712 0
727 0
738 0
766 0
779 0
929 0
944 0
983 0

